34 34
21
12 34 0 0
3 34 12 0
3 25 15 0
3 22 18 0
3 21 21 0
4 14 24 0
4 11 24 14
3 14 28 0
3 13 21 21
3 12 18 22
3 11 28 14
3 10 31 0
3 9 15 25
3 8 31 10
3 7 31 18
4 5 24 25
3 6 28 25
4 4 24 30
3 5 31 25
3 4 31 30
3 3 28 31
